NAME : TA-Prioritized.22072.tour
COMMENT : Length = 22072
COMMENT : Found by LKH-3 [Keld Helsgaun] Wed Jan 31 21:16:08 2024
TYPE : TOUR
DIMENSION : 125
TOUR_SECTION
1
112
102
55
65
47
60
2
74
105
19
95
91
45
87
41
80
124
99
108
52
88
48
35
117
6
82
96
33
76
86
50
63
4
122
62
36
30
121
38
90
93
58
107
106
72
85
40
89
7
37
26
13
27
79
42
51
56
9
39
34
28
81
10
49
12
119
25
17
53
78
115
16
71
83
100
109
15
110
68
103
11
77
24
22
8
123
114
101
46
5
29
61
18
92
120
97
67
3
116
69
113
98
23
14
54
111
59
118
32
21
20
94
104
57
31
75
64
43
73
84
66
70
44
125
-1
EOF
